presolving:
(round 1, fast)       0 del vars, 54 del conss, 0 add conss, 0 chg bounds, 0 chg sides, 0 chg coeffs, 0 upgd conss, 0 impls, 5500 clqs
   (0.0s) running MILP presolver
   (0.1s) MILP presolver found nothing
(round 2, exhaustive) 1 del vars, 54 del conss, 0 add conss, 0 chg bounds, 0 chg sides, 0 chg coeffs, 5500 upgd conss, 0 impls, 5500 clqs
   (0.2s) probing: 51/5454 (0.9%) - 0 fixings, 0 aggregations, 0 implications, 0 bound changes
   (0.2s) probing aborted: 50/50 successive totally useless probings
   (0.3s) symmetry computation started: requiring (bin +, int -, cont +), (fixed: bin -, int +, cont -)
   (0.3s) no symmetry present
presolving (3 rounds: 3 fast, 2 medium, 2 exhaustive):
 1 deleted vars, 54 deleted constraints, 0 added constraints, 0 tightened bounds, 0 added holes, 0 changed sides, 0 changed coefficients
 0 implications, 5500 cliques
presolved problem has 5454 variables (5454 bin, 0 int, 0 impl, 0 cont) and 5500 constraints
   5500 constraints of type <setppc>
transformed objective value is always integral (scale: 1)
Presolving Time: 0.25

 time | node  | left  |LP iter|LP it/n|mem/heur|mdpt |vars |cons |rows |cuts |sepa|confs|strbr|  dualbound   | primalbound  |  gap   | compl. 
p 0.3s|     1 |     0 |     0 |     - |  clique|   0 |5454 |5500 |5500 |   0 |  0 |   0 |   0 | 0.000000e+00 | 3.856840e+05 |    Inf | unknown
p 0.4s|     1 |     0 |     0 |     - | vbounds|   0 |5454 |5500 |5500 |   0 |  0 |   0 |   0 | 0.000000e+00 | 1.465430e+05 |    Inf | unknown
p 0.4s|     1 |     0 |     0 |     - | vbounds|   0 |5454 |5500 |5500 |   0 |  0 |   0 |   0 | 0.000000e+00 | 1.398360e+05 |    Inf | unknown
  0.8s|     1 |     0 |  2794 |     - |    70M |   0 |5454 |5501 |5500 |   0 |  0 |   1 |   0 | 1.183576e+05 | 1.398360e+05 |  18.15%| unknown
  1.9s|     1 |     0 |  2843 |     - |    75M |   0 |5454 |5501 |5501 |   1 |  1 |   1 |   0 | 1.183651e+05 | 1.398360e+05 |  18.14%| unknown
  3.2s|     1 |     0 |  3067 |     - |    77M |   0 |5454 |5501 |5504 |   4 |  2 |   1 |   0 | 1.184339e+05 | 1.398360e+05 |  18.07%| unknown
  4.8s|     1 |     0 |  3221 |     - |    85M |   0 |5454 |5501 |5506 |   6 |  3 |   1 |   0 | 1.184659e+05 | 1.398360e+05 |  18.04%| unknown
  6.6s|     1 |     0 |  3339 |     - |    91M |   0 |5454 |5501 |5508 |   8 |  4 |   1 |   0 | 1.184842e+05 | 1.398360e+05 |  18.02%| unknown
  7.8s|     1 |     0 |  3456 |     - |    93M |   0 |5454 |5501 |5510 |  10 |  5 |   1 |   0 | 1.185016e+05 | 1.398360e+05 |  18.00%| unknown
  9.6s|     1 |     0 |  3606 |     - |    99M |   0 |5454 |5501 |5512 |  12 |  6 |   1 |   0 | 1.185166e+05 | 1.398360e+05 |  17.99%| unknown
 10.0s|     1 |     0 |  3956 |     - |   100M |   0 |5454 |5501 |5514 |  14 |  7 |   1 |   0 | 1.185483e+05 | 1.398360e+05 |  17.96%| unknown
 10.3s|     1 |     0 |  4096 |     - |   101M |   0 |5454 |5501 |5515 |  15 |  8 |   1 |   0 | 1.185644e+05 | 1.398360e+05 |  17.94%| unknown
 10.6s|     1 |     0 |  4222 |     - |   101M |   0 |5454 |5501 |5516 |  16 |  9 |   1 |   0 | 1.185794e+05 | 1.398360e+05 |  17.93%| unknown
 10.8s|     1 |     0 |  4290 |     - |   102M |   0 |5454 |5501 |5517 |  17 | 10 |   1 |   0 | 1.185857e+05 | 1.398360e+05 |  17.92%| unknown
 10.9s|     1 |     0 |  4305 |     - |   102M |   0 |5454 |5501 |5518 |  18 | 11 |   1 |   0 | 1.185860e+05 | 1.398360e+05 |  17.92%| unknown
 time | node  | left  |LP iter|LP it/n|mem/heur|mdpt |vars |cons |rows |cuts |sepa|confs|strbr|  dualbound   | primalbound  |  gap   | compl. 
 11.1s|     1 |     0 |  4495 |     - |   103M |   0 |5454 |5501 |5520 |  20 | 12 |   1 |   0 | 1.185987e+05 | 1.398360e+05 |  17.91%| unknown
 11.2s|     1 |     0 |  4542 |     - |   104M |   0 |5454 |5501 |5521 |  21 | 13 |   1 |   0 | 1.186072e+05 | 1.398360e+05 |  17.90%| unknown
 11.3s|     1 |     0 |  4687 |     - |   104M |   0 |5454 |5501 |5522 |  22 | 14 |   1 |   0 | 1.186182e+05 | 1.398360e+05 |  17.89%| unknown
 11.5s|     1 |     0 |  4747 |     - |   105M |   0 |5454 |5501 |5523 |  23 | 15 |   1 |   0 | 1.186274e+05 | 1.398360e+05 |  17.88%| unknown
 11.6s|     1 |     0 |  4825 |     - |   106M |   0 |5454 |5501 |5524 |  24 | 16 |   1 |   0 | 1.186320e+05 | 1.398360e+05 |  17.87%| unknown
 11.8s|     1 |     0 |  4938 |     - |   106M |   0 |5454 |5501 |5523 |  25 | 17 |   1 |   0 | 1.186392e+05 | 1.398360e+05 |  17.87%| unknown
 11.9s|     1 |     0 |  4966 |     - |   106M |   0 |5454 |5501 |5524 |  26 | 18 |   1 |   0 | 1.186411e+05 | 1.398360e+05 |  17.86%| unknown
 12.0s|     1 |     0 |  5015 |     - |   106M |   0 |5454 |5501 |5525 |  27 | 19 |   1 |   0 | 1.186429e+05 | 1.398360e+05 |  17.86%| unknown
 12.1s|     1 |     0 |  5035 |     - |   107M |   0 |5454 |5501 |5526 |  28 | 20 |   1 |   0 | 1.186433e+05 | 1.398360e+05 |  17.86%| unknown
d13.4s|     1 |     0 |  8896 |     - |farkasdi|   0 |5454 |5501 |5526 |   0 | 22 |   1 |   0 | 1.186433e+05 | 1.221410e+05 |   2.95%| unknown
 18.3s|     1 |     0 | 16677 |     - |   108M |   0 |5454 |5507 |5526 |  28 | 22 |   7 |   0 | 1.186433e+05 | 1.221410e+05 |   2.95%| unknown
 18.3s|     1 |     0 | 16677 |     - |   108M |   0 |5454 |5507 |4687 |  28 | 22 |   7 |   0 | 1.186433e+05 | 1.221410e+05 |   2.95%| unknown
 18.5s|     1 |     0 | 16735 |     - |   108M |   0 |5454 |4668 |4687 |  29 | 23 |   7 |   0 | 1.186454e+05 | 1.221410e+05 |   2.95%| unknown
 18.5s|     1 |     0 | 16756 |     - |   108M |   0 |5454 |4668 |4688 |  30 | 24 |   7 |   0 | 1.186471e+05 | 1.221410e+05 |   2.94%| unknown
(run 1, node 1) restarting after 1101 global fixings of integer variables

(restart) converted 27 cuts from the global cut pool into linear constraints

presolving:
(round 1, fast)       1101 del vars, 0 del conss, 0 add conss, 0 chg bounds, 0 chg sides, 11 chg coeffs, 0 upgd conss, 0 impls, 4408 clqs
   (18.5s) running MILP presolver
   (18.6s) MILP presolver found nothing
(round 2, exhaustive) 1101 del vars, 0 del conss, 0 add conss, 0 chg bounds, 0 chg sides, 11 chg coeffs, 27 upgd conss, 0 impls, 4408 clqs
presolving (3 rounds: 3 fast, 2 medium, 2 exhaustive):
 1101 deleted vars, 0 deleted constraints, 0 added constraints, 0 tightened bounds, 0 added holes, 0 changed sides, 11 changed coefficients
 0 implications, 4408 cliques
presolved problem has 4353 variables (4353 bin, 0 int, 0 impl, 0 cont) and 4442 constraints
     27 constraints of type <knapsack>
   4408 constraints of type <setppc>
      7 constraints of type <logicor>
transformed objective value is always integral (scale: 1)
Presolving Time: 0.34
transformed 5/6 original solutions to the transformed problem space

 time | node  | left  |LP iter|LP it/n|mem/heur|mdpt |vars |cons |rows |cuts |sepa|confs|strbr|  dualbound   | primalbound  |  gap   | compl. 
 20.3s|     1 |     0 | 23855 |     - |   106M |   0 |4353 |4442 |4435 |   0 |  0 |   7 |   0 | 1.186471e+05 | 1.221410e+05 |   2.94%| unknown
 20.4s|     1 |     0 | 23855 |     - |   107M |   0 |4353 |4442 |4435 |   0 |  0 |   7 |   0 | 1.186471e+05 | 1.221410e+05 |   2.94%| unknown
 20.7s|     1 |     0 | 23952 |     - |   108M |   0 |4353 |4442 |4436 |   1 |  1 |   7 |   0 | 1.186614e+05 | 1.221410e+05 |   2.93%| unknown
 20.9s|     1 |     0 | 23985 |     - |   108M |   0 |4353 |4442 |4437 |   2 |  2 |   7 |   0 | 1.186631e+05 | 1.221410e+05 |   2.93%| unknown
 21.2s|     1 |     0 | 24198 |     - |   109M |   0 |4353 |4442 |4438 |   3 |  3 |   7 |   0 | 1.186761e+05 | 1.221410e+05 |   2.92%| unknown
 21.9s|     1 |     0 | 24320 |     - |   109M |   0 |4353 |4442 |4440 |   5 |  4 |   7 |   0 | 1.186851e+05 | 1.221410e+05 |   2.91%| unknown
 22.2s|     1 |     0 | 24340 |     - |   109M |   0 |4353 |4442 |4441 |   6 |  5 |   7 |   0 | 1.186863e+05 | 1.221410e+05 |   2.91%| unknown
 22.5s|     1 |     0 | 24408 |     - |   110M |   0 |4353 |4442 |4442 |   7 |  6 |   7 |   0 | 1.186894e+05 | 1.221410e+05 |   2.91%| unknown
 22.9s|     1 |     0 | 24647 |     - |   111M |   0 |4353 |4442 |4443 |   8 |  7 |   7 |   0 | 1.186969e+05 | 1.221410e+05 |   2.90%| unknown
 23.2s|     1 |     0 | 24701 |     - |   111M |   0 |4353 |4442 |4444 |   9 |  8 |   7 |   0 | 1.186980e+05 | 1.221410e+05 |   2.90%| unknown
 23.6s|     1 |     0 | 24802 |     - |   111M |   0 |4353 |4442 |4445 |  10 |  9 |   7 |   0 | 1.187007e+05 | 1.221410e+05 |   2.90%| unknown
 23.9s|     1 |     0 | 24866 |     - |   112M |   0 |4353 |4442 |4445 |  11 | 10 |   7 |   0 | 1.187025e+05 | 1.221410e+05 |   2.90%| unknown
 24.0s|     1 |     0 | 24974 |     - |   112M |   0 |4353 |4442 |4446 |  12 | 11 |   7 |   0 | 1.187058e+05 | 1.221410e+05 |   2.89%| unknown
 24.2s|     1 |     0 | 25056 |     - |   112M |   0 |4353 |4442 |4447 |  13 | 12 |   7 |   0 | 1.187076e+05 | 1.221410e+05 |   2.89%| unknown
 24.4s|     1 |     0 | 25094 |     - |   113M |   0 |4353 |4442 |4448 |  14 | 13 |   7 |   0 | 1.187088e+05 | 1.221410e+05 |   2.89%| unknown
 time | node  | left  |LP iter|LP it/n|mem/heur|mdpt |vars |cons |rows |cuts |sepa|confs|strbr|  dualbound   | primalbound  |  gap   | compl. 
d25.2s|     1 |     0 | 28578 |     - |farkasdi|   0 |4353 |4446 |4448 |   0 | 13 |  12 |   0 | 1.187088e+05 | 1.213690e+05 |   2.24%| unknown
 28.4s|     1 |     0 | 31813 |     - |   113M |   0 |4353 |4452 |4448 |  14 | 13 |  18 |   0 | 1.187088e+05 | 1.213690e+05 |   2.24%| unknown
 28.5s|     1 |     0 | 31813 |     - |   113M |   0 |4353 |4452 |4363 |  14 | 13 |  18 |   0 | 1.187088e+05 | 1.213690e+05 |   2.24%| unknown
 28.6s|     1 |     0 | 31882 |     - |   113M |   0 |4353 |4367 |4365 |  16 | 14 |  18 |   0 | 1.187133e+05 | 1.213690e+05 |   2.24%| unknown
 35.5s|     1 |     2 | 31883 |     - |   113M |   0 |4353 |4262 |4365 |  16 | 15 |  18 |  32 | 1.188208e+05 | 1.213690e+05 |   2.14%| unknown
(run 2, node 1) restarting after 194 global fixings of integer variables

(restart) converted 16 cuts from the global cut pool into linear constraints

presolving:
(round 1, fast)       194 del vars, 0 del conss, 0 add conss, 0 chg bounds, 0 chg sides, 2 chg coeffs, 0 upgd conss, 0 impls, 4217 clqs
(round 2, exhaustive) 194 del vars, 0 del conss, 0 add conss, 0 chg bounds, 0 chg sides, 2 chg coeffs, 16 upgd conss, 0 impls, 4217 clqs
presolving (3 rounds: 3 fast, 2 medium, 2 exhaustive):
 194 deleted vars, 0 deleted constraints, 0 added constraints, 0 tightened bounds, 0 added holes, 0 changed sides, 2 changed coefficients
 0 implications, 4217 cliques
presolved problem has 4159 variables (4159 bin, 0 int, 0 impl, 0 cont) and 4278 constraints
     43 constraints of type <knapsack>
   4217 constraints of type <setppc>
     18 constraints of type <logicor>
transformed objective value is always integral (scale: 1)
Presolving Time: 0.42
transformed 7/8 original solutions to the transformed problem space

 time | node  | left  |LP iter|LP it/n|mem/heur|mdpt |vars |cons |rows |cuts |sepa|confs|strbr|  dualbound   | primalbound  |  gap   | compl. 
 37.4s|     1 |     0 | 40548 |     - |   115M |   0 |4159 |4278 |4260 |   0 |  0 |  18 |  32 | 1.188208e+05 | 1.213690e+05 |   2.14%| unknown
 37.4s|     1 |     0 | 40548 |     - |   115M |   0 |4159 |4278 |4089 |   0 |  0 |  18 |  32 | 1.188208e+05 | 1.213690e+05 |   2.14%| unknown
 37.7s|     1 |     0 | 40611 |     - |   116M |   0 |4159 |4107 |4090 |   1 |  1 |  18 |  32 | 1.188208e+05 | 1.213690e+05 |   2.14%| unknown
 38.0s|     1 |     0 | 40696 |     - |   116M |   0 |4159 |4107 |4091 |   2 |  2 |  18 |  32 | 1.188208e+05 | 1.213690e+05 |   2.14%| unknown
 38.3s|     1 |     0 | 40732 |     - |   116M |   0 |4159 |4107 |4092 |   3 |  3 |  18 |  32 | 1.188208e+05 | 1.213690e+05 |   2.14%| unknown
 38.6s|     1 |     0 | 40788 |     - |   117M |   0 |4159 |4107 |4093 |   4 |  4 |  18 |  32 | 1.188208e+05 | 1.213690e+05 |   2.14%| unknown
 39.0s|     1 |     0 | 40803 |     - |   117M |   0 |4159 |4107 |4094 |   5 |  5 |  18 |  32 | 1.188208e+05 | 1.213690e+05 |   2.14%| unknown
 39.4s|     1 |     0 | 40816 |     - |   118M |   0 |4159 |4107 |4095 |   6 |  6 |  18 |  32 | 1.188208e+05 | 1.213690e+05 |   2.14%| unknown
 39.7s|     1 |     0 | 40949 |     - |   118M |   0 |4159 |4107 |4096 |   7 |  7 |  18 |  32 | 1.188208e+05 | 1.213690e+05 |   2.14%| unknown
 40.0s|     1 |     0 | 41131 |     - |   119M |   0 |4159 |4107 |4097 |   8 |  8 |  18 |  32 | 1.188208e+05 | 1.213690e+05 |   2.14%| unknown
 40.2s|     1 |     0 | 41189 |     - |   119M |   0 |4159 |4107 |4098 |   9 |  9 |  18 |  32 | 1.188208e+05 | 1.213690e+05 |   2.14%| unknown
 40.5s|     1 |     0 | 41222 |     - |   119M |   0 |4159 |4107 |4099 |  10 | 10 |  18 |  32 | 1.188208e+05 | 1.213690e+05 |   2.14%| unknown
 40.7s|     1 |     0 | 41257 |     - |   120M |   0 |4159 |4107 |4100 |  11 | 11 |  18 |  32 | 1.188208e+05 | 1.213690e+05 |   2.14%| unknown
 47.7s|     1 |     2 | 46695 |     - |   120M |   0 |4159 |4072 |4100 |  11 | 11 |  31 |  51 | 1.189133e+05 | 1.213690e+05 |   2.07%| unknown
*66.0s|     9 |     3 | 53668 |3077.3 |strongbr|   6 |4159 |4092 |4091 |  11 |  2 |  51 | 168 | 1.193536e+05 | 1.205380e+05 |   0.99%|  12.20%

SCIP Status        : problem is solved [optimal solution found]
Solving Time (sec) : 67.84
Solving Nodes      : 12 (total of 14 nodes in 3 runs)
Primal Bound       : +1.20538000000000e+05 (10 solutions)
Dual Bound         : +1.20538000000000e+05
Gap                : 0.00 %
Solve Status: optimal
Solve Time: 67.84 seconds
Objective Value: 120538.00
